(declare-rel loop ((Array Int Int) (Array Int Int) Int Int Int ))
(declare-rel exit ())
(declare-var i Int )
(declare-var i1 Int )
(declare-var i2 Int )
(declare-var i3 Int )
(declare-var i4 Int )
(declare-var i5 Int )
(declare-var i6 Int )
(declare-var i7 Int )
(declare-var i8 Int )
(declare-var s Int )
(declare-var s1 Int )
(declare-var s2 Int )
(declare-var s3 Int )
(declare-var s4 Int )
(declare-var s5 Int )
(declare-var s6 Int )
(declare-var s7 Int )
(declare-var s8 Int )
(declare-var index_limit Int )
(declare-var a_i Int )
(declare-var a_i1 Int )
(declare-var a_i2 Int )
(declare-var a_i3 Int )
(declare-var a_i5 Int )
(declare-var a_i4 Int )
(declare-var a_i6 Int )
(declare-var a_i7 Int )
(declare-var b_i Int )
(declare-var b_i1 Int )
(declare-var b_i2 Int )
(declare-var b_i3 Int )
(declare-var b_i4 Int )
(declare-var b_i5 Int )
(declare-var b_i6 Int )
(declare-var b_i7 Int )
(declare-var count Int )
(declare-var a_array (Array Int Int) )
(declare-var a_array1 (Array Int Int) )
(declare-var a_array2 (Array Int Int) )
(declare-var a_array3 (Array Int Int) )
(declare-var a_array4 (Array Int Int) )
(declare-var a_array5 (Array Int Int) )
(declare-var a_array6 (Array Int Int) )
(declare-var a_array7 (Array Int Int) )
(declare-var a_array8 (Array Int Int) )
(declare-var b_array (Array Int Int) )

(rule (=> 
	(and 
		(= i 0)
		(= s 0)
	)
	(loop a_array b_array i s count)
))
(rule (=> 
	(and 
		(loop a_array b_array i s count)

		(= index_limit (* count 8))
		(< i index_limit)
		
		(= s1 (+ s 2))
		(= b_i (select b_array i))
		(= a_i (* s1 b_i))
		(= a_array1 (store a_array i a_i))
		(= i1 (+ i 1))

		(= s2 (+ s1 2))
		(= b_i1 (select b_array i1))
		(= a_i1 (* s2 b_i1))
		(= a_array2 (store a_array1 i1 a_i1))
		(= i2 (+ i1 1))

		(= s3 (+ s2 2))
		(= b_i2 (select b_array i2))
		(= a_i2 (* s3 b_i2))
		(= a_array3 (store a_array2 i2 a_i2))
		(= i3 (+ i2 1))

		(= s4 (+ s3 2))
		(= b_i3 (select b_array i3))
		(= a_i3 (* s4 b_i3))
		(= a_array4 (store a_array3 i3 a_i3))
		(= i4 (+ i3 1))

		(= s5 (+ s4 2))
		(= b_i4 (select b_array i4))
		(= a_i4 (* s5 b_i4))
		(= a_array5 (store a_array4 i4 a_i4))
		(= i5 (+ i4 1))

		(= s6 (+ s5 2))
		(= b_i5 (select b_array i5))
		(= a_i5 (* s6 b_i5))
		(= a_array6 (store a_array5 i5 a_i5))
		(= i6 (+ i5 1))

		(= s7 (+ s6 2))
		(= b_i6 (select b_array i6))
		(= a_i6 (* s7 b_i6))
		(= a_array7 (store a_array6 i6 a_i6))
		(= i7 (+ i6 1))

		(= s8 (+ s7 2))
		(= b_i7 (select b_array i7))
		(= a_i7 (* s8 b_i7))
		(= a_array8 (store a_array7 i7 a_i7))
		(= i8 (+ i7 1))
	)
	(loop a_array8 b_array i8 s8 count)
))
(rule (=> 
	(and 
		(loop a_array b_array i s count)
		(= index_limit (* count 8))
		(not (< i index_limit))
	)
	exit
))
(query exit)